(set-logic QF_S)
(declare-fun var0 () Bool)
(declare-fun var1 () Int)
(declare-fun var2 () Int)
(declare-fun var3 () String)
(declare-fun var4 () String)
(declare-fun var5 () String)
(declare-fun var6 () Int)
(declare-fun var7 () String)
(declare-fun var8 () Int)
(assert (not var0))
(assert (not (>= var1 var2)))
(assert (> (str.to.int var3) (str.indexof var4 var5 var6)))
(assert (str.prefixof (str.replace var7 var7 var4) (str.at var7 var8)))
(check-sat)